# 78102
param k := 6;
param n := 60;
param s := 1;
set E :=  (0,15) (0,23) (0,31) (1,23) (2,30) (3,13) (3,37) (4,17) (4,43) (5,6) (5,53) (6,39) (7,9) (7,49) (8,39) (8,58) (9,28) (9,43) (10,20) (10,40) (11,30) (11,58) (12,23) (12,48) (12,51) (13,41) (13,47) (13,59) (14,58) (16,21) (16,37) (17,18) (17,33) (18,38) (18,48) (19,29) (20,27) (20,32) (21,24) (22,45) (25,59) (26,52) (26,56) (29,31) (30,37) (30,56) (31,36) (33,45) (33,54) (34,44) (35,42) (38,46) (40,59) (41,44) (41,50) (42,54) (43,55) (51,58) (53,57);